DATASET = "thpack5";
INSTANCE = "014";

WIDTH = 233;
HEIGHT = 220;
LENGTH = 587;

NO_OF_SHAPES = 12;
size = [|
  68,48,31 |
  104,80,63 |
  82,46,21 |
  114,78,60 |
  90,74,66 |
  112,54,36 |
  71,64,54 |
  74,53,33 |
  75,62,57 |
  68,62,52 |
  64,49,47 |
  60,39,36 |
|];

verticality = [|
  0,1,1 |
  1,1,1 |
  0,0,1 |
  1,1,1 |
  1,1,1 |
  0,1,1 |
  1,1,1 |
  0,1,1 |
  1,1,1 |
  1,1,1 |
  1,1,1 |
  1,1,1 |
|];

box_count = [
  11,
  12,
  10,
  10,
  7,
  9,
  12,
  8,
  5,
  14,
  11,
  14,
];
